11793
0 1 0 1 0 0 1 0 0 0 
6 6 6 6 6 6 6 6 3 3 3 3 3 3 3 3 3 3 3 3 3 3 3 3 3 1 6 1 6 1 1 1 1 6 6 6 6 7 7 7 7 7 7 7 7 7 4 5 5 5 5 3 4 1 2 5 3 3 3 4 7 5 5 5 0 5 5 7 4 2 1 1 4 3 3 5 3 4 4 1 1 3 3 5 5 3 3 4 5 3 1 1 1 1 5 2 3 4 3 7 
